
Gurobi 9.5.0 (linux64) logging started Tue Nov  7 19:22:58 2023

Set parameter LogFile to value "/lustre1/scratch/348/vsc34888/JointResearch/05.Models/06.Benchmarking/F.Representative_days_based_on_Line_Benefit_NN_OC_fy_1/RTS24_ByStages_nc80/openStarNet_RTS24_ByStages_nc80.log"
Set parameter Method to value 2
Set parameter MIPFocus to value 1
Set parameter Presolve to value 2
Set parameter RINS to value 100
Set parameter MIPGap to value 0.01
Set parameter Threads to value 36
Set parameter TimeLimit to value 604800
Set parameter IterationLimit to value 760000000
Gurobi Optimizer version 9.5.0 build v9.5.0rc5 (linux64)
Thread count: 36 physical cores, 36 logical processors, using up to 36 threads
Optimize a model with 35603 rows, 20301 columns and 97354 nonzeros
Model fingerprint: 0x52e48d6a
Variable types: 20262 continuous, 39 integer (39 binary)
Coefficient statistics:
  Matrix range     [3e-03, 1e+03]
  Objective range  [1e+00, 1e+00]
  Bounds range     [4e-04, 3e+00]
  RHS range        [4e-04, 3e+00]
Presolve removed 17363 rows and 8629 columns
Presolve time: 0.18s
Presolved: 18240 rows, 11672 columns, 63393 nonzeros
Variable types: 11633 continuous, 39 integer (39 binary)
Found heuristic solution: objective 157.6333981
Root relaxation presolved: 18240 rows, 11672 columns, 63393 nonzeros

Root barrier log...

Ordering time: 0.01s

Barrier statistics:
 Dense cols : 39
 AA' NZ     : 1.350e+05
 Factor NZ  : 4.524e+05 (roughly 16 MB of memory)
 Factor Ops : 1.424e+07 (less than 1 second per iteration)
 Threads    : 36

                  Objective                Residual
Iter       Primal          Dual         Primal    Dual     Compl     Time
   0   6.20474447e+05 -1.28288973e+08  4.48e+00 3.69e+02  9.98e+03     0s
   1   6.64541352e+04 -3.46467885e+07  3.65e-01 6.99e-09  1.24e+03     0s
   2   2.41236644e+04 -4.68863000e+06  1.20e-02 2.84e-09  1.30e+02     0s
   3   1.77774472e+04 -1.89130392e+05  9.49e-13 7.41e-11  5.60e+00     0s
   4   3.61792859e+03 -4.13860513e+04  1.13e-12 1.35e-11  1.22e+00     1s
   5   1.30764071e+03 -1.12815577e+04  6.11e-13 3.64e-12  3.41e-01     1s
   6   5.73742684e+02 -3.20020357e+03  5.98e-13 1.82e-12  1.02e-01     1s
   7   3.42285171e+02 -1.15683389e+03  2.97e-13 9.09e-13  4.06e-02     1s
   8   2.14268207e+02 -3.82740941e+02  2.61e-13 9.09e-13  1.62e-02     1s
   9   1.65523744e+02 -6.32233893e+01  2.72e-13 9.09e-13  6.19e-03     1s
  10   1.18856704e+02  4.31341322e+01  2.79e-13 1.82e-12  2.05e-03     1s
  11   1.00582835e+02  8.18266368e+01  9.00e-13 1.82e-12  5.08e-04     1s
  12   9.78350068e+01  8.82701786e+01  1.64e-12 1.82e-12  2.59e-04     1s
  13   9.67649802e+01  9.12875971e+01  2.67e-12 9.09e-13  1.48e-04     1s
  14   9.61810315e+01  9.33446269e+01  2.95e-12 1.82e-12  7.68e-05     1s
  15   9.58472994e+01  9.40434271e+01  3.16e-12 9.09e-13  4.88e-05     1s
  16   9.55669697e+01  9.44517906e+01  1.03e-11 9.09e-13  3.02e-05     1s
  17   9.54048837e+01  9.46051117e+01  7.51e-11 1.82e-12  2.16e-05     1s
  18   9.52972071e+01  9.49081161e+01  7.44e-11 3.64e-12  1.05e-05     1s
  19   9.52347034e+01  9.49893012e+01  1.71e-10 1.82e-12  6.64e-06     1s
  20   9.51963754e+01  9.51045317e+01  8.82e-11 9.09e-13  2.49e-06     1s
  21   9.51724651e+01  9.51536508e+01  1.20e-10 1.82e-12  5.09e-07     1s
  22   9.51701782e+01  9.51687622e+01  2.38e-10 9.09e-13  3.83e-08     1s
  23   9.51701102e+01  9.51700368e+01  3.07e-09 1.82e-12  1.99e-09     1s
  24   9.51700855e+01  9.51700854e+01  5.21e-10 9.09e-13  3.06e-13     1s

Barrier solved model in 24 iterations and 0.74 seconds (0.62 work units)
Optimal objective 9.51700855e+01


Root relaxation: objective 9.517009e+01, 1520 iterations, 0.50 seconds (0.31 work units)

    Nodes    |    Current Node    |     Objective Bounds      |     Work
 Expl Unexpl |  Obj  Depth IntInf | Incumbent    BestBd   Gap | It/Node Time

     0     0   95.17009    0   13  157.63340   95.17009  39.6%     -    0s
H    0     0                     128.7811707   95.17009  26.1%     -    1s
H    0     0                     112.0480157   97.50640  13.0%     -    1s
     0     0   97.50640    0   12  112.04802   97.50640  13.0%     -    1s
     0     0   97.59589    0   12  112.04802   97.59589  12.9%     -    2s
     0     0   97.64733    0   12  112.04802   97.64733  12.9%     -    2s
     0     0   97.70404    0   12  112.04802   97.70404  12.8%     -    2s
     0     0   97.70419    0   12  112.04802   97.70419  12.8%     -    2s
     0     0   98.71324    0   11  112.04802   98.71324  11.9%     -    2s
     0     0   98.71660    0   11  112.04802   98.71660  11.9%     -    2s
     0     0   98.71660    0   11  112.04802   98.71660  11.9%     -    2s
     0     0   98.85900    0   10  112.04802   98.85900  11.8%     -    3s
     0     0   98.91400    0   10  112.04802   98.91400  11.7%     -    3s
     0     0   98.91574    0   10  112.04802   98.91574  11.7%     -    3s
     0     0   98.97382    0   10  112.04802   98.97382  11.7%     -    3s
     0     0   98.98331    0   11  112.04802   98.98331  11.7%     -    4s
     0     0   98.99488    0   11  112.04802   98.99488  11.6%     -    4s
     0     0   99.00385    0   11  112.04802   99.00385  11.6%     -    4s
     0     0   99.02734    0   11  112.04802   99.02734  11.6%     -    4s
H    0     0                     106.7143301   99.02734  7.20%     -    7s
     0     2   99.02734    0   11  106.71433   99.02734  7.20%     -    8s
   133    12  105.00301   11    6  106.71433  105.00301  1.60%   273   14s
   154     2     cutoff   12       106.71433  105.27093  1.35%   247   17s

Cutting planes:
  Gomory: 5
  Implied bound: 12
  MIR: 556
  Relax-and-lift: 1

Explored 166 nodes (43482 simplex iterations) in 17.80 seconds (21.08 work units)
Thread count was 36 (of 36 available processors)

Solution count 4: 106.714 112.048 128.781 157.633 

Optimal solution found (tolerance 1.00e-02)
Best objective 1.067143301482e+02, best bound 1.064048992647e+02, gap 0.2900%

Gurobi 9.5.0 (linux64) logging started Tue Nov  7 19:23:20 2023

Set parameter LogFile to value "/lustre1/scratch/348/vsc34888/JointResearch/05.Models/06.Benchmarking/F.Representative_days_based_on_Line_Benefit_NN_OC_fy_1/RTS24_ByStages_nc80/openStarNet_RTS24_ByStages_nc80.log"
Set parameter Method to value 2
Set parameter MIPFocus to value 1
Set parameter Presolve to value 2
Set parameter RINS to value 100
Set parameter MIPGap to value 0.01
Set parameter Threads to value 36
Set parameter TimeLimit to value 604800
Set parameter IterationLimit to value 760000000
No parameters matching 'relax_integrality' found
Gurobi Optimizer version 9.5.0 build v9.5.0rc5 (linux64)
Thread count: 36 physical cores, 36 logical processors, using up to 36 threads
Optimize a model with 35603 rows, 20262 columns and 84835 nonzeros
Model fingerprint: 0x9a714172
Coefficient statistics:
  Matrix range     [3e-03, 1e+03]
  Objective range  [1e+00, 1e+00]
  Bounds range     [4e-04, 3e+00]
  RHS range        [4e-04, 3e+01]
Presolve removed 28168 rows and 9439 columns
Presolve time: 0.04s
Presolved: 7435 rows, 10983 columns, 27293 nonzeros

Ordering time: 0.00s

Barrier statistics:
 AA' NZ     : 1.917e+04
 Factor NZ  : 8.145e+04 (roughly 7 MB of memory)
 Factor Ops : 1.237e+06 (less than 1 second per iteration)
 Threads    : 36

                  Objective                Residual
Iter       Primal          Dual         Primal    Dual     Compl     Time
   0   6.92244373e+05 -3.88214022e+08  6.06e+00 8.25e+02  4.16e+04     0s
   1   7.78169537e+04 -6.15242925e+07  5.19e-01 2.94e-11  4.32e+03     0s
   2   4.01789742e+04 -6.37699647e+06  1.43e-01 3.43e-11  4.19e+02     0s
   3   2.42832897e+04 -5.42115030e+05  5.97e-03 2.18e-11  3.05e+01     0s
   4   1.30712041e+04 -7.26619413e+04  8.78e-13 1.57e-11  4.55e+00     0s
   5   8.05458746e+03 -2.18358312e+04  3.51e-13 3.79e-12  1.59e+00     0s
   6   2.75145574e+03 -7.16475759e+03  2.72e-13 2.91e-12  5.27e-01     0s
   7   8.65504321e+02 -2.05340205e+03  3.46e-13 7.28e-12  1.55e-01     0s
   8   4.91728827e+02 -5.09215702e+02  2.86e-13 1.46e-11  5.32e-02     0s
   9   2.89989185e+02 -2.26065120e+02  4.66e-13 1.46e-11  2.74e-02     0s
  10   1.70752687e+02 -9.44804083e+00  4.40e-13 7.28e-12  9.57e-03     0s
  11   1.36229264e+02  4.88760680e+01  9.33e-13 7.28e-12  4.64e-03     0s
  12   1.22736586e+02  8.22879300e+01  1.32e-12 7.28e-12  2.15e-03     0s
  13   1.14062648e+02  9.88128066e+01  1.34e-12 3.64e-12  8.10e-04     0s
  14   1.08521906e+02  1.04829424e+02  1.39e-12 3.64e-12  1.96e-04     0s
  15   1.07509630e+02  1.06045568e+02  3.18e-12 1.82e-12  7.78e-05     0s
  16   1.06811907e+02  1.06649065e+02  1.16e-11 1.82e-12  8.65e-06     0s
  17   1.06723385e+02  1.06696445e+02  1.08e-11 9.09e-13  1.43e-06     0s
  18   1.06714449e+02  1.06713154e+02  3.14e-11 1.82e-12  6.88e-08     0s
  19   1.06714333e+02  1.06714310e+02  7.67e-11 7.28e-12  1.22e-09     0s
  20   1.06714330e+02  1.06714330e+02  1.39e-12 7.28e-12  1.22e-12     0s
  21   1.06714330e+02  1.06714330e+02  2.99e-12 7.28e-12  1.45e-17     0s

Barrier solved model in 21 iterations and 0.18 seconds (0.11 work units)
Optimal objective 1.06714330e+02

Crossover log...

     966 DPushes remaining with DInf 0.0000000e+00                 0s
       0 DPushes remaining with DInf 0.0000000e+00                 0s

     462 PPushes remaining with PInf 0.0000000e+00                 0s
       0 PPushes remaining with PInf 0.0000000e+00                 0s

  Push phase complete: Pinf 0.0000000e+00, Dinf 1.4304319e-12      0s

Iteration    Objective       Primal Inf.    Dual Inf.      Time
     488    1.0671433e+02   0.000000e+00   0.000000e+00      0s

Use crossover to convert LP symmetric solution to basic solution...
Crossover log...

       0 DPushes remaining with DInf 0.0000000e+00                 0s

     285 PPushes remaining with PInf 0.0000000e+00                 0s
       0 PPushes remaining with PInf 0.0000000e+00                 0s

  Push phase complete: Pinf 0.0000000e+00, Dinf 1.7509310e-12      0s

Iteration    Objective       Primal Inf.    Dual Inf.      Time
     790    1.0671433e+02   0.000000e+00   0.000000e+00      0s

Solved in 790 iterations and 0.26 seconds (0.15 work units)
Optimal objective  1.067143301e+02
